
%FILE DATA:	Soccer Computational Problem for MiniZinc Models	%
%AUTHOR:	Jack Wall	%
%CONTACT:  	116397063@umail.ucc.ie			%
%LAST UPDATE:	03/03/2020, 16:09:05						%
%DESCRIPTION: 	49 games played with 23 games left				%


n=9; %number of teams

%Games to play
games=[|7,4|5,7|2,6|7,3|7,2|1,3|8,1|3,6|4,3|8,6|2,4|2,5|1,2|3,4|6,3|9,7|3,1|1,4|7,6|8,3|5,3|8,2|6,7|];

%Initial points
iPoints=[22,7,12,13,13,8,14,20,22];

%POSITION CONSTRAINTS
% [|teamID, operator, position|...]
% operators index:
%  1 for =  operator
%  2 for >  operator
%  3 for >= operator
%  4 for <  operator
%  5 for <= operator
positionConstraints=[|1,1,1|8,3,2|];